HUN,8,6,640
1,34,3,94,2,42,5,7,0,48,4,97
1,78,5,55,3,63,2,91,4,13,0,37
2,4,0,100,5,11,1,26,4,76,3,2
0,59,2,17,1,84,3,21,5,24,4,33
4,46,5,43,1,21,2,91,0,66,3,26
2,100,4,15,1,40,5,45,3,23,0,46
2,18,3,8,1,93,0,61,5,57,4,34
0,97,2,2,1,21,3,94,5,28,4,57
